% Logging successfully configured
%%%mzn-stat: initTime=0.00613583
%%%mzn-stat: objective=906
%%%mzn-stat: nodes=292
%%%mzn-stat: restarts=0
%%%mzn-stat: peakDepth=292
%%%mzn-stat: solveTime=0.002390806
%%%mzn-stat: variables=790
%%%mzn-stat: propagators=477
%%%mzn-stat: failures=0
%%%mzn-stat: propagations=1546
%%%mzn-stat: nogoods=0
%%%mzn-stat: numAtomicConstraintsPropagated=0
%%%mzn-stat: circuitNumber1PropagationsTotal=52
%%%mzn-stat: circuitNumber1CircuitConflicts=0
%%%mzn-stat: circuitNumber1AlldiffConflicts=0
%%%mzn-stat: circuitNumber1TotalFixedEdgesAtConflict=0
%%%mzn-stat: circuitNumber1NumberOfConflicts=0
%%%mzn-stat: circuitNumber1GacPrunings=138
%%%mzn-stat: circuitNumber1PropagationsThatGacPruned=24
%%%mzn-stat: circuitNumber1TotalPruningHallSetSize=907
%%%mzn-stat: circuitNumber1NumberOfPruningExplanations=138
%%%mzn-stat: circuitNumber1MaxPruningHallSetSize=41
%%%mzn-stat: circuitNumber1TotalSccSizeAtPruning=363
%%%mzn-stat: circuitNumber1NumberOfSccPruningCalls=24
%%%mzn-stat: circuitNumber1TotalVarsInvolvedInPruning=114
%%%mzn-stat: circuitNumber1MaxValuesPrunedFromSingleVar=4
%%%mzn-stat: circuitNumber1HallCircuitChecks=64
%%%mzn-stat: circuitNumber1HallCircuitPrunings=0
%%%mzn-stat: circuitNumber1CircuitPreventPrunings=10
%%%mzn-stat: AverageConflictSize=0
%%%mzn-stat: NumUnitNogoodsLearned=0
%%%mzn-stat: AverageLearnedNogoodLength=0
%%%mzn-stat: AverageBacktrackAmount=0
%%%mzn-stat: AverageLbd=0
%%%mzn-stat: 2AutonomousSearchNumBackupCalled=270
%%%mzn-stat: 2AutonomousSearchNumPredicatesRemoved=0
%%%mzn-stat: 2AutonomousSearchNumCalls=271
%%%mzn-stat: 2AutonomousSearchNumPredicatesAdded=0
%%%mzn-stat: 2AutonomousSearchAverageSizeOfHeap=0
%%%mzn-stat: 2AutonomousSearchNumAssignedPredicatesEncountered=0
%%%mzn-stat-end
maxleg = 906;
succ = array1d(1..50,[13, 19, 10, 2, 11, 4, 8, 28, 6, 5, 12, 9, 29, 23, 31, 15, 35, 3, 1, 44, 32, 27, 22, 14, 50, 46, 17, 48, 16, 26, 34, 41, 37, 38, 7, 47, 45, 49, 43, 33, 20, 40, 25, 30, 21, 24, 18, 36, 39, 42]);
% time elapsed: 1.15 s
----------
%%%mzn-stat: initTime=0.00613583
%%%mzn-stat: objective=905
%%%mzn-stat: nodes=584
%%%mzn-stat: restarts=0
%%%mzn-stat: peakDepth=293
%%%mzn-stat: solveTime=0.004624723
%%%mzn-stat: variables=790
%%%mzn-stat: propagators=477
%%%mzn-stat: failures=0
%%%mzn-stat: propagations=2308
%%%mzn-stat: nogoods=0
%%%mzn-stat: numAtomicConstraintsPropagated=0
%%%mzn-stat: circuitNumber1PropagationsTotal=98
%%%mzn-stat: circuitNumber1CircuitConflicts=0
%%%mzn-stat: circuitNumber1AlldiffConflicts=0
%%%mzn-stat: circuitNumber1TotalFixedEdgesAtConflict=0
%%%mzn-stat: circuitNumber1NumberOfConflicts=0
%%%mzn-stat: circuitNumber1GacPrunings=275
%%%mzn-stat: circuitNumber1PropagationsThatGacPruned=47
%%%mzn-stat: circuitNumber1TotalPruningHallSetSize=1804
%%%mzn-stat: circuitNumber1NumberOfPruningExplanations=275
%%%mzn-stat: circuitNumber1MaxPruningHallSetSize=41
%%%mzn-stat: circuitNumber1TotalSccSizeAtPruning=647
%%%mzn-stat: circuitNumber1NumberOfSccPruningCalls=47
%%%mzn-stat: circuitNumber1TotalVarsInvolvedInPruning=228
%%%mzn-stat: circuitNumber1MaxValuesPrunedFromSingleVar=4
%%%mzn-stat: circuitNumber1HallCircuitChecks=160
%%%mzn-stat: circuitNumber1HallCircuitPrunings=0
%%%mzn-stat: circuitNumber1CircuitPreventPrunings=18
%%%mzn-stat: AverageConflictSize=0
%%%mzn-stat: NumUnitNogoodsLearned=0
%%%mzn-stat: AverageLearnedNogoodLength=0
%%%mzn-stat: AverageBacktrackAmount=0
%%%mzn-stat: AverageLbd=0
%%%mzn-stat: 2AutonomousSearchNumBackupCalled=543
%%%mzn-stat: 2AutonomousSearchNumPredicatesRemoved=0
%%%mzn-stat: 2AutonomousSearchNumCalls=545
%%%mzn-stat: 2AutonomousSearchNumPredicatesAdded=0
%%%mzn-stat: 2AutonomousSearchAverageSizeOfHeap=0
%%%mzn-stat: 2AutonomousSearchNumAssignedPredicatesEncountered=0
%%%mzn-stat-end
maxleg = 905;
succ = array1d(1..50,[13, 19, 10, 2, 11, 4, 8, 28, 6, 5, 12, 9, 29, 23, 31, 25, 35, 3, 1, 44, 32, 27, 22, 14, 50, 46, 17, 48, 16, 26, 34, 41, 37, 38, 7, 47, 45, 49, 43, 33, 15, 20, 42, 30, 21, 24, 18, 36, 39, 40]);
% time elapsed: 1.15 s
----------
%%%mzn-stat: initTime=0.00613583
%%%mzn-stat: objective=900
%%%mzn-stat: nodes=876
%%%mzn-stat: restarts=0
%%%mzn-stat: peakDepth=293
%%%mzn-stat: solveTime=0.007393071
%%%mzn-stat: variables=790
%%%mzn-stat: propagators=477
%%%mzn-stat: failures=1
%%%mzn-stat: propagations=3170
%%%mzn-stat: nogoods=1
%%%mzn-stat: numAtomicConstraintsPropagated=0
%%%mzn-stat: circuitNumber1PropagationsTotal=155
%%%mzn-stat: circuitNumber1CircuitConflicts=1
%%%mzn-stat: circuitNumber1AlldiffConflicts=0
%%%mzn-stat: circuitNumber1TotalFixedEdgesAtConflict=49
%%%mzn-stat: circuitNumber1NumberOfConflicts=1
%%%mzn-stat: circuitNumber1GacPrunings=417
%%%mzn-stat: circuitNumber1PropagationsThatGacPruned=75
%%%mzn-stat: circuitNumber1TotalPruningHallSetSize=2694
%%%mzn-stat: circuitNumber1NumberOfPruningExplanations=417
%%%mzn-stat: circuitNumber1MaxPruningHallSetSize=41
%%%mzn-stat: circuitNumber1TotalSccSizeAtPruning=967
%%%mzn-stat: circuitNumber1NumberOfSccPruningCalls=75
%%%mzn-stat: circuitNumber1TotalVarsInvolvedInPruning=346
%%%mzn-stat: circuitNumber1MaxValuesPrunedFromSingleVar=4
%%%mzn-stat: circuitNumber1HallCircuitChecks=258
%%%mzn-stat: circuitNumber1HallCircuitPrunings=0
%%%mzn-stat: circuitNumber1CircuitPreventPrunings=28
%%%mzn-stat: AverageConflictSize=40
%%%mzn-stat: NumUnitNogoodsLearned=0
%%%mzn-stat: AverageLearnedNogoodLength=33
%%%mzn-stat: AverageBacktrackAmount=0
%%%mzn-stat: AverageLbd=21
%%%mzn-stat: 2AutonomousSearchNumBackupCalled=811
%%%mzn-stat: 2AutonomousSearchNumPredicatesRemoved=0
%%%mzn-stat: 2AutonomousSearchNumCalls=814
%%%mzn-stat: 2AutonomousSearchNumPredicatesAdded=112
%%%mzn-stat: 2AutonomousSearchAverageSizeOfHeap=0.1375921375921376
%%%mzn-stat: 2AutonomousSearchNumAssignedPredicatesEncountered=112
%%%mzn-stat-end
maxleg = 900;
succ = array1d(1..50,[13, 19, 10, 2, 11, 4, 8, 28, 6, 5, 12, 9, 29, 23, 31, 25, 35, 7, 41, 3, 32, 27, 22, 14, 18, 46, 17, 48, 16, 43, 26, 20, 37, 38, 1, 47, 45, 49, 34, 33, 15, 40, 39, 30, 21, 24, 44, 36, 50, 42]);
% time elapsed: 1.15 s
----------
%%%mzn-stat: initTime=0.00613583
%%%mzn-stat: objective=897
%%%mzn-stat: nodes=1167
%%%mzn-stat: restarts=0
%%%mzn-stat: peakDepth=293
%%%mzn-stat: solveTime=0.009797918
%%%mzn-stat: variables=790
%%%mzn-stat: propagators=477
%%%mzn-stat: failures=2
%%%mzn-stat: propagations=3998
%%%mzn-stat: nogoods=2
%%%mzn-stat: numAtomicConstraintsPropagated=0
%%%mzn-stat: circuitNumber1PropagationsTotal=206
%%%mzn-stat: circuitNumber1CircuitConflicts=1
%%%mzn-stat: circuitNumber1AlldiffConflicts=1
%%%mzn-stat: circuitNumber1TotalFixedEdgesAtConflict=90
%%%mzn-stat: circuitNumber1NumberOfConflicts=2
%%%mzn-stat: circuitNumber1GacPrunings=547
%%%mzn-stat: circuitNumber1PropagationsThatGacPruned=99
%%%mzn-stat: circuitNumber1TotalPruningHallSetSize=3635
%%%mzn-stat: circuitNumber1NumberOfPruningExplanations=547
%%%mzn-stat: circuitNumber1MaxPruningHallSetSize=41
%%%mzn-stat: circuitNumber1TotalSccSizeAtPruning=1273
%%%mzn-stat: circuitNumber1NumberOfSccPruningCalls=99
%%%mzn-stat: circuitNumber1TotalVarsInvolvedInPruning=452
%%%mzn-stat: circuitNumber1MaxValuesPrunedFromSingleVar=4
%%%mzn-stat: circuitNumber1HallCircuitChecks=331
%%%mzn-stat: circuitNumber1HallCircuitPrunings=0
%%%mzn-stat: circuitNumber1CircuitPreventPrunings=38
%%%mzn-stat: AverageConflictSize=23
%%%mzn-stat: NumUnitNogoodsLearned=0
%%%mzn-stat: AverageLearnedNogoodLength=33
%%%mzn-stat: AverageBacktrackAmount=0
%%%mzn-stat: AverageLbd=20.5
%%%mzn-stat: 2AutonomousSearchNumBackupCalled=1080
%%%mzn-stat: 2AutonomousSearchNumPredicatesRemoved=0
%%%mzn-stat: 2AutonomousSearchNumCalls=1084
%%%mzn-stat: 2AutonomousSearchNumPredicatesAdded=146
%%%mzn-stat: 2AutonomousSearchAverageSizeOfHeap=0.20848708487084872
%%%mzn-stat: 2AutonomousSearchNumAssignedPredicatesEncountered=226
%%%mzn-stat-end
maxleg = 897;
succ = array1d(1..50,[13, 19, 10, 2, 11, 4, 8, 28, 6, 5, 12, 9, 29, 23, 31, 25, 35, 7, 41, 3, 32, 27, 22, 14, 18, 46, 20, 48, 16, 26, 34, 39, 17, 38, 1, 47, 45, 49, 43, 33, 37, 40, 50, 30, 21, 24, 44, 36, 42, 15]);
% time elapsed: 1.15 s
----------
%%%mzn-stat: initTime=0.00613583
%%%mzn-stat: objective=836
%%%mzn-stat: nodes=1456
%%%mzn-stat: restarts=0
%%%mzn-stat: peakDepth=293
%%%mzn-stat: solveTime=0.011941796
%%%mzn-stat: variables=790
%%%mzn-stat: propagators=477
%%%mzn-stat: failures=3
%%%mzn-stat: propagations=4808
%%%mzn-stat: nogoods=3
%%%mzn-stat: numAtomicConstraintsPropagated=0
%%%mzn-stat: circuitNumber1PropagationsTotal=247
%%%mzn-stat: circuitNumber1CircuitConflicts=2
%%%mzn-stat: circuitNumber1AlldiffConflicts=1
%%%mzn-stat: circuitNumber1TotalFixedEdgesAtConflict=136
%%%mzn-stat: circuitNumber1NumberOfConflicts=3
%%%mzn-stat: circuitNumber1GacPrunings=697
%%%mzn-stat: circuitNumber1PropagationsThatGacPruned=118
%%%mzn-stat: circuitNumber1TotalPruningHallSetSize=4636
%%%mzn-stat: circuitNumber1NumberOfPruningExplanations=697
%%%mzn-stat: circuitNumber1MaxPruningHallSetSize=41
%%%mzn-stat: circuitNumber1TotalSccSizeAtPruning=1541
%%%mzn-stat: circuitNumber1NumberOfSccPruningCalls=118
%%%mzn-stat: circuitNumber1TotalVarsInvolvedInPruning=573
%%%mzn-stat: circuitNumber1MaxValuesPrunedFromSingleVar=6
%%%mzn-stat: circuitNumber1HallCircuitChecks=395
%%%mzn-stat: circuitNumber1HallCircuitPrunings=0
%%%mzn-stat: circuitNumber1CircuitPreventPrunings=46
%%%mzn-stat: AverageConflictSize=17
%%%mzn-stat: NumUnitNogoodsLearned=0
%%%mzn-stat: AverageLearnedNogoodLength=29.666666666666668
%%%mzn-stat: AverageBacktrackAmount=0
%%%mzn-stat: AverageLbd=17
%%%mzn-stat: 2AutonomousSearchNumBackupCalled=1353
%%%mzn-stat: 2AutonomousSearchNumPredicatesRemoved=0
%%%mzn-stat: 2AutonomousSearchNumCalls=1358
%%%mzn-stat: 2AutonomousSearchNumPredicatesAdded=212
%%%mzn-stat: 2AutonomousSearchAverageSizeOfHeap=0.2960235640648012
%%%mzn-stat: 2AutonomousSearchNumAssignedPredicatesEncountered=402
%%%mzn-stat-end
maxleg = 836;
succ = array1d(1..50,[13, 19, 10, 2, 11, 4, 8, 28, 6, 5, 12, 9, 29, 23, 31, 25, 35, 16, 41, 3, 32, 27, 47, 14, 50, 46, 17, 48, 30, 26, 34, 49, 37, 38, 1, 22, 45, 44, 43, 33, 7, 20, 42, 40, 21, 24, 18, 36, 39, 15]);
% time elapsed: 1.15 s
----------
%%%mzn-stat: initTime=0.00613583
%%%mzn-stat: objective=800
%%%mzn-stat: nodes=1722
%%%mzn-stat: restarts=0
%%%mzn-stat: peakDepth=293
%%%mzn-stat: solveTime=0.014033256
%%%mzn-stat: variables=790
%%%mzn-stat: propagators=477
%%%mzn-stat: failures=3
%%%mzn-stat: propagations=5634
%%%mzn-stat: nogoods=3
%%%mzn-stat: numAtomicConstraintsPropagated=0
%%%mzn-stat: circuitNumber1PropagationsTotal=290
%%%mzn-stat: circuitNumber1CircuitConflicts=2
%%%mzn-stat: circuitNumber1AlldiffConflicts=1
%%%mzn-stat: circuitNumber1TotalFixedEdgesAtConflict=136
%%%mzn-stat: circuitNumber1NumberOfConflicts=3
%%%mzn-stat: circuitNumber1GacPrunings=839
%%%mzn-stat: circuitNumber1PropagationsThatGacPruned=139
%%%mzn-stat: circuitNumber1TotalPruningHallSetSize=5659
%%%mzn-stat: circuitNumber1NumberOfPruningExplanations=839
%%%mzn-stat: circuitNumber1MaxPruningHallSetSize=49
%%%mzn-stat: circuitNumber1TotalSccSizeAtPruning=1925
%%%mzn-stat: circuitNumber1NumberOfSccPruningCalls=139
%%%mzn-stat: circuitNumber1TotalVarsInvolvedInPruning=690
%%%mzn-stat: circuitNumber1MaxValuesPrunedFromSingleVar=6
%%%mzn-stat: circuitNumber1HallCircuitChecks=468
%%%mzn-stat: circuitNumber1HallCircuitPrunings=0
%%%mzn-stat: circuitNumber1CircuitPreventPrunings=57
%%%mzn-stat: AverageConflictSize=17
%%%mzn-stat: NumUnitNogoodsLearned=0
%%%mzn-stat: AverageLearnedNogoodLength=29.666666666666668
%%%mzn-stat: AverageBacktrackAmount=0
%%%mzn-stat: AverageLbd=17
%%%mzn-stat: 2AutonomousSearchNumBackupCalled=1602
%%%mzn-stat: 2AutonomousSearchNumPredicatesRemoved=0
%%%mzn-stat: 2AutonomousSearchNumCalls=1608
%%%mzn-stat: 2AutonomousSearchNumPredicatesAdded=212
%%%mzn-stat: 2AutonomousSearchAverageSizeOfHeap=0.35945273631840796
%%%mzn-stat: 2AutonomousSearchNumAssignedPredicatesEncountered=578
%%%mzn-stat-end
maxleg = 800;
succ = array1d(1..50,[13, 19, 10, 14, 11, 4, 8, 28, 6, 5, 12, 9, 30, 23, 32, 25, 35, 7, 41, 3, 29, 27, 22, 33, 18, 46, 17, 31, 16, 26, 34, 39, 37, 38, 1, 47, 45, 49, 43, 50, 15, 20, 48, 40, 21, 24, 44, 36, 2, 42]);
% time elapsed: 1.15 s
----------
%%%mzn-stat: initTime=0.00613583
%%%mzn-stat: objective=706
%%%mzn-stat: nodes=1971
%%%mzn-stat: restarts=0
%%%mzn-stat: peakDepth=293
%%%mzn-stat: solveTime=0.017905637
%%%mzn-stat: variables=790
%%%mzn-stat: propagators=477
%%%mzn-stat: failures=7
%%%mzn-stat: propagations=6587
%%%mzn-stat: nogoods=7
%%%mzn-stat: numAtomicConstraintsPropagated=0
%%%mzn-stat: circuitNumber1PropagationsTotal=341
%%%mzn-stat: circuitNumber1CircuitConflicts=6
%%%mzn-stat: circuitNumber1AlldiffConflicts=1
%%%mzn-stat: circuitNumber1TotalFixedEdgesAtConflict=317
%%%mzn-stat: circuitNumber1NumberOfConflicts=7
%%%mzn-stat: circuitNumber1GacPrunings=1026
%%%mzn-stat: circuitNumber1PropagationsThatGacPruned=163
%%%mzn-stat: circuitNumber1TotalPruningHallSetSize=7041
%%%mzn-stat: circuitNumber1NumberOfPruningExplanations=1026
%%%mzn-stat: circuitNumber1MaxPruningHallSetSize=49
%%%mzn-stat: circuitNumber1TotalSccSizeAtPruning=2363
%%%mzn-stat: circuitNumber1NumberOfSccPruningCalls=163
%%%mzn-stat: circuitNumber1TotalVarsInvolvedInPruning=841
%%%mzn-stat: circuitNumber1MaxValuesPrunedFromSingleVar=6
%%%mzn-stat: circuitNumber1HallCircuitChecks=549
%%%mzn-stat: circuitNumber1HallCircuitPrunings=0
%%%mzn-stat: circuitNumber1CircuitPreventPrunings=66
%%%mzn-stat: AverageConflictSize=12.428571428571429
%%%mzn-stat: NumUnitNogoodsLearned=0
%%%mzn-stat: AverageLearnedNogoodLength=27.142857142857142
%%%mzn-stat: AverageBacktrackAmount=0
%%%mzn-stat: AverageLbd=13.285714285714286
%%%mzn-stat: 2AutonomousSearchNumBackupCalled=1831
%%%mzn-stat: 2AutonomousSearchNumPredicatesRemoved=0
%%%mzn-stat: 2AutonomousSearchNumCalls=1838
%%%mzn-stat: 2AutonomousSearchNumPredicatesAdded=383
%%%mzn-stat: 2AutonomousSearchAverageSizeOfHeap=0.470076169749728
%%%mzn-stat: 2AutonomousSearchNumAssignedPredicatesEncountered=864
%%%mzn-stat-end
maxleg = 706;
succ = array1d(1..50,[13, 19, 10, 14, 11, 4, 8, 28, 6, 5, 12, 25, 30, 23, 32, 15, 35, 49, 41, 3, 29, 27, 22, 33, 9, 46, 17, 31, 16, 26, 34, 39, 37, 38, 1, 47, 45, 44, 43, 50, 7, 20, 48, 40, 21, 24, 18, 36, 2, 42]);
% time elapsed: 1.16 s
----------
%%%mzn-stat: initTime=0.00613583
%%%mzn-stat: objective=676
%%%mzn-stat: nodes=2210
%%%mzn-stat: restarts=0
%%%mzn-stat: peakDepth=293
%%%mzn-stat: solveTime=0.021030053
%%%mzn-stat: variables=790
%%%mzn-stat: propagators=477
%%%mzn-stat: failures=10
%%%mzn-stat: propagations=7566
%%%mzn-stat: nogoods=10
%%%mzn-stat: numAtomicConstraintsPropagated=0
%%%mzn-stat: circuitNumber1PropagationsTotal=391
%%%mzn-stat: circuitNumber1CircuitConflicts=7
%%%mzn-stat: circuitNumber1AlldiffConflicts=1
%%%mzn-stat: circuitNumber1TotalFixedEdgesAtConflict=365
%%%mzn-stat: circuitNumber1NumberOfConflicts=8
%%%mzn-stat: circuitNumber1GacPrunings=1207
%%%mzn-stat: circuitNumber1PropagationsThatGacPruned=189
%%%mzn-stat: circuitNumber1TotalPruningHallSetSize=8377
%%%mzn-stat: circuitNumber1NumberOfPruningExplanations=1207
%%%mzn-stat: circuitNumber1MaxPruningHallSetSize=49
%%%mzn-stat: circuitNumber1TotalSccSizeAtPruning=2779
%%%mzn-stat: circuitNumber1NumberOfSccPruningCalls=189
%%%mzn-stat: circuitNumber1TotalVarsInvolvedInPruning=979
%%%mzn-stat: circuitNumber1MaxValuesPrunedFromSingleVar=6
%%%mzn-stat: circuitNumber1HallCircuitChecks=638
%%%mzn-stat: circuitNumber1HallCircuitPrunings=0
%%%mzn-stat: circuitNumber1CircuitPreventPrunings=79
%%%mzn-stat: AverageConflictSize=12.9
%%%mzn-stat: NumUnitNogoodsLearned=0
%%%mzn-stat: AverageLearnedNogoodLength=30.2
%%%mzn-stat: AverageBacktrackAmount=0
%%%mzn-stat: AverageLbd=12.6
%%%mzn-stat: 2AutonomousSearchNumBackupCalled=2051
%%%mzn-stat: 2AutonomousSearchNumPredicatesRemoved=0
%%%mzn-stat: 2AutonomousSearchNumCalls=2059
%%%mzn-stat: 2AutonomousSearchNumPredicatesAdded=829
%%%mzn-stat: 2AutonomousSearchAverageSizeOfHeap=0.7168528411850413
%%%mzn-stat: 2AutonomousSearchNumAssignedPredicatesEncountered=1476
%%%mzn-stat-end
maxleg = 676;
succ = array1d(1..50,[13, 19, 10, 14, 11, 4, 8, 28, 6, 5, 17, 25, 30, 23, 32, 15, 35, 7, 41, 3, 29, 27, 22, 33, 9, 46, 44, 12, 16, 26, 34, 39, 31, 38, 1, 47, 45, 49, 43, 50, 37, 20, 48, 40, 21, 24, 18, 36, 2, 42]);
% time elapsed: 1.16 s
----------
%%%mzn-stat: initTime=0.00613583
%%%mzn-stat: objective=639
%%%mzn-stat: nodes=2424
%%%mzn-stat: restarts=0
%%%mzn-stat: peakDepth=293
%%%mzn-stat: solveTime=0.023359015
%%%mzn-stat: variables=790
%%%mzn-stat: propagators=477
%%%mzn-stat: failures=11
%%%mzn-stat: propagations=8432
%%%mzn-stat: nogoods=11
%%%mzn-stat: numAtomicConstraintsPropagated=0
%%%mzn-stat: circuitNumber1PropagationsTotal=428
%%%mzn-stat: circuitNumber1CircuitConflicts=7
%%%mzn-stat: circuitNumber1AlldiffConflicts=2
%%%mzn-stat: circuitNumber1TotalFixedEdgesAtConflict=414
%%%mzn-stat: circuitNumber1NumberOfConflicts=9
%%%mzn-stat: circuitNumber1GacPrunings=1342
%%%mzn-stat: circuitNumber1PropagationsThatGacPruned=207
%%%mzn-stat: circuitNumber1TotalPruningHallSetSize=9729
%%%mzn-stat: circuitNumber1NumberOfPruningExplanations=1342
%%%mzn-stat: circuitNumber1MaxPruningHallSetSize=49
%%%mzn-stat: circuitNumber1TotalSccSizeAtPruning=3307
%%%mzn-stat: circuitNumber1NumberOfSccPruningCalls=207
%%%mzn-stat: circuitNumber1TotalVarsInvolvedInPruning=1073
%%%mzn-stat: circuitNumber1MaxValuesPrunedFromSingleVar=6
%%%mzn-stat: circuitNumber1HallCircuitChecks=702
%%%mzn-stat: circuitNumber1HallCircuitPrunings=0
%%%mzn-stat: circuitNumber1CircuitPreventPrunings=89
%%%mzn-stat: AverageConflictSize=11.909090909090908
%%%mzn-stat: NumUnitNogoodsLearned=0
%%%mzn-stat: AverageLearnedNogoodLength=30.454545454545453
%%%mzn-stat: AverageBacktrackAmount=0
%%%mzn-stat: AverageLbd=12.454545454545455
%%%mzn-stat: 2AutonomousSearchNumBackupCalled=2250
%%%mzn-stat: 2AutonomousSearchNumPredicatesRemoved=0
%%%mzn-stat: 2AutonomousSearchNumCalls=2259
%%%mzn-stat: 2AutonomousSearchNumPredicatesAdded=952
%%%mzn-stat: 2AutonomousSearchAverageSizeOfHeap=0.965028773793714
%%%mzn-stat: 2AutonomousSearchNumAssignedPredicatesEncountered=2180
%%%mzn-stat-end
maxleg = 639;
succ = array1d(1..50,[13, 19, 10, 14, 11, 4, 8, 28, 6, 5, 35, 25, 29, 23, 31, 15, 7, 16, 41, 3, 32, 27, 22, 33, 9, 46, 49, 12, 30, 26, 34, 39, 17, 38, 1, 47, 45, 44, 43, 50, 37, 20, 48, 40, 21, 24, 18, 36, 2, 42]);
% time elapsed: 1.16 s
----------
%%%mzn-stat: initTime=0.00613583
%%%mzn-stat: objective=634
%%%mzn-stat: nodes=2629
%%%mzn-stat: restarts=0
%%%mzn-stat: peakDepth=293
%%%mzn-stat: solveTime=0.025069085
%%%mzn-stat: variables=790
%%%mzn-stat: propagators=477
%%%mzn-stat: failures=11
%%%mzn-stat: propagations=9265
%%%mzn-stat: nogoods=11
%%%mzn-stat: numAtomicConstraintsPropagated=0
%%%mzn-stat: circuitNumber1PropagationsTotal=452
%%%mzn-stat: circuitNumber1CircuitConflicts=7
%%%mzn-stat: circuitNumber1AlldiffConflicts=2
%%%mzn-stat: circuitNumber1TotalFixedEdgesAtConflict=414
%%%mzn-stat: circuitNumber1NumberOfConflicts=9
%%%mzn-stat: circuitNumber1GacPrunings=1467
%%%mzn-stat: circuitNumber1PropagationsThatGacPruned=218
%%%mzn-stat: circuitNumber1TotalPruningHallSetSize=11128
%%%mzn-stat: circuitNumber1NumberOfPruningExplanations=1467
%%%mzn-stat: circuitNumber1MaxPruningHallSetSize=49
%%%mzn-stat: circuitNumber1TotalSccSizeAtPruning=3697
%%%mzn-stat: circuitNumber1NumberOfSccPruningCalls=218
%%%mzn-stat: circuitNumber1TotalVarsInvolvedInPruning=1152
%%%mzn-stat: circuitNumber1MaxValuesPrunedFromSingleVar=6
%%%mzn-stat: circuitNumber1HallCircuitChecks=726
%%%mzn-stat: circuitNumber1HallCircuitPrunings=0
%%%mzn-stat: circuitNumber1CircuitPreventPrunings=98
%%%mzn-stat: AverageConflictSize=11.909090909090908
%%%mzn-stat: NumUnitNogoodsLearned=0
%%%mzn-stat: AverageLearnedNogoodLength=30.454545454545453
%%%mzn-stat: AverageBacktrackAmount=0
%%%mzn-stat: AverageLbd=12.454545454545455
%%%mzn-stat: 2AutonomousSearchNumBackupCalled=2446
%%%mzn-stat: 2AutonomousSearchNumPredicatesRemoved=0
%%%mzn-stat: 2AutonomousSearchNumCalls=2456
%%%mzn-stat: 2AutonomousSearchNumPredicatesAdded=952
%%%mzn-stat: 2AutonomousSearchAverageSizeOfHeap=1.1742671009771988
%%%mzn-stat: 2AutonomousSearchNumAssignedPredicatesEncountered=2884
%%%mzn-stat-end
maxleg = 634;
succ = array1d(1..50,[13, 19, 10, 14, 11, 4, 8, 28, 6, 5, 49, 25, 29, 23, 31, 15, 35, 16, 41, 3, 32, 27, 22, 33, 9, 46, 44, 12, 30, 26, 34, 39, 17, 38, 7, 47, 45, 1, 43, 50, 37, 20, 48, 40, 21, 24, 18, 36, 2, 42]);
% time elapsed: 1.17 s
----------
%%%mzn-stat: initTime=0.00613583
%%%mzn-stat: objective=631
%%%mzn-stat: nodes=2829
%%%mzn-stat: restarts=0
%%%mzn-stat: peakDepth=293
%%%mzn-stat: solveTime=0.027064601
%%%mzn-stat: variables=790
%%%mzn-stat: propagators=477
%%%mzn-stat: failures=11
%%%mzn-stat: propagations=10105
%%%mzn-stat: nogoods=11
%%%mzn-stat: numAtomicConstraintsPropagated=0
%%%mzn-stat: circuitNumber1PropagationsTotal=478
%%%mzn-stat: circuitNumber1CircuitConflicts=7
%%%mzn-stat: circuitNumber1AlldiffConflicts=2
%%%mzn-stat: circuitNumber1TotalFixedEdgesAtConflict=414
%%%mzn-stat: circuitNumber1NumberOfConflicts=9
%%%mzn-stat: circuitNumber1GacPrunings=1593
%%%mzn-stat: circuitNumber1PropagationsThatGacPruned=230
%%%mzn-stat: circuitNumber1TotalPruningHallSetSize=12945
%%%mzn-stat: circuitNumber1NumberOfPruningExplanations=1593
%%%mzn-stat: circuitNumber1MaxPruningHallSetSize=49
%%%mzn-stat: circuitNumber1TotalSccSizeAtPruning=4048
%%%mzn-stat: circuitNumber1NumberOfSccPruningCalls=230
%%%mzn-stat: circuitNumber1TotalVarsInvolvedInPruning=1228
%%%mzn-stat: circuitNumber1MaxValuesPrunedFromSingleVar=6
%%%mzn-stat: circuitNumber1HallCircuitChecks=757
%%%mzn-stat: circuitNumber1HallCircuitPrunings=0
%%%mzn-stat: circuitNumber1CircuitPreventPrunings=108
%%%mzn-stat: AverageConflictSize=11.909090909090908
%%%mzn-stat: NumUnitNogoodsLearned=0
%%%mzn-stat: AverageLearnedNogoodLength=30.454545454545453
%%%mzn-stat: AverageBacktrackAmount=0
%%%mzn-stat: AverageLbd=12.454545454545455
%%%mzn-stat: 2AutonomousSearchNumBackupCalled=2637
%%%mzn-stat: 2AutonomousSearchNumPredicatesRemoved=0
%%%mzn-stat: 2AutonomousSearchNumCalls=2648
%%%mzn-stat: 2AutonomousSearchNumPredicatesAdded=952
%%%mzn-stat: 2AutonomousSearchAverageSizeOfHeap=1.3549848942598188
%%%mzn-stat: 2AutonomousSearchNumAssignedPredicatesEncountered=3588
%%%mzn-stat-end
maxleg = 631;
succ = array1d(1..50,[13, 19, 10, 14, 11, 4, 8, 28, 6, 25, 49, 34, 29, 23, 32, 15, 35, 21, 41, 3, 5, 27, 22, 33, 9, 46, 44, 31, 30, 26, 16, 39, 17, 38, 7, 47, 45, 1, 43, 50, 42, 20, 48, 40, 36, 24, 18, 37, 2, 12]);
% time elapsed: 1.18 s
----------
%%%mzn-stat: initTime=0.00613583
%%%mzn-stat: objective=625
%%%mzn-stat: nodes=3038
%%%mzn-stat: restarts=0
%%%mzn-stat: peakDepth=293
%%%mzn-stat: solveTime=0.03012591
%%%mzn-stat: variables=790
%%%mzn-stat: propagators=477
%%%mzn-stat: failures=13
%%%mzn-stat: propagations=11108
%%%mzn-stat: nogoods=13
%%%mzn-stat: numAtomicConstraintsPropagated=0
%%%mzn-stat: circuitNumber1PropagationsTotal=519
%%%mzn-stat: circuitNumber1CircuitConflicts=8
%%%mzn-stat: circuitNumber1AlldiffConflicts=2
%%%mzn-stat: circuitNumber1TotalFixedEdgesAtConflict=457
%%%mzn-stat: circuitNumber1NumberOfConflicts=10
%%%mzn-stat: circuitNumber1GacPrunings=1767
%%%mzn-stat: circuitNumber1PropagationsThatGacPruned=251
%%%mzn-stat: circuitNumber1TotalPruningHallSetSize=15467
%%%mzn-stat: circuitNumber1NumberOfPruningExplanations=1767
%%%mzn-stat: circuitNumber1MaxPruningHallSetSize=49
%%%mzn-stat: circuitNumber1TotalSccSizeAtPruning=4398
%%%mzn-stat: circuitNumber1NumberOfSccPruningCalls=251
%%%mzn-stat: circuitNumber1TotalVarsInvolvedInPruning=1338
%%%mzn-stat: circuitNumber1MaxValuesPrunedFromSingleVar=6
%%%mzn-stat: circuitNumber1HallCircuitChecks=841
%%%mzn-stat: circuitNumber1HallCircuitPrunings=0
%%%mzn-stat: circuitNumber1CircuitPreventPrunings=123
%%%mzn-stat: AverageConflictSize=11.692307692307692
%%%mzn-stat: NumUnitNogoodsLearned=0
%%%mzn-stat: AverageLearnedNogoodLength=31.307692307692307
%%%mzn-stat: AverageBacktrackAmount=0
%%%mzn-stat: AverageLbd=11.538461538461538
%%%mzn-stat: 2AutonomousSearchNumBackupCalled=2832
%%%mzn-stat: 2AutonomousSearchNumPredicatesRemoved=0
%%%mzn-stat: 2AutonomousSearchNumCalls=2844
%%%mzn-stat: 2AutonomousSearchNumPredicatesAdded=1324
%%%mzn-stat: 2AutonomousSearchAverageSizeOfHeap=1.6125175808720114
%%%mzn-stat: 2AutonomousSearchNumAssignedPredicatesEncountered=4586
%%%mzn-stat-end
maxleg = 625;
succ = array1d(1..50,[13, 19, 10, 14, 11, 39, 8, 28, 6, 25, 17, 34, 29, 9, 31, 5, 35, 21, 41, 23, 32, 27, 22, 4, 50, 46, 44, 12, 30, 26, 16, 49, 3, 38, 7, 47, 45, 1, 43, 33, 42, 20, 48, 40, 36, 24, 18, 37, 2, 15]);
% time elapsed: 1.18 s
----------
%%%mzn-stat: initTime=0.00613583
%%%mzn-stat: objective=624
%%%mzn-stat: nodes=3236
%%%mzn-stat: restarts=0
%%%mzn-stat: peakDepth=293
%%%mzn-stat: solveTime=0.032536999
%%%mzn-stat: variables=790
%%%mzn-stat: propagators=477
%%%mzn-stat: failures=14
%%%mzn-stat: propagations=11952
%%%mzn-stat: nogoods=14
%%%mzn-stat: numAtomicConstraintsPropagated=0
%%%mzn-stat: circuitNumber1PropagationsTotal=549
%%%mzn-stat: circuitNumber1CircuitConflicts=9
%%%mzn-stat: circuitNumber1AlldiffConflicts=2
%%%mzn-stat: circuitNumber1TotalFixedEdgesAtConflict=500
%%%mzn-stat: circuitNumber1NumberOfConflicts=11
%%%mzn-stat: circuitNumber1GacPrunings=1906
%%%mzn-stat: circuitNumber1PropagationsThatGacPruned=266
%%%mzn-stat: circuitNumber1TotalPruningHallSetSize=18011
%%%mzn-stat: circuitNumber1NumberOfPruningExplanations=1906
%%%mzn-stat: circuitNumber1MaxPruningHallSetSize=49
%%%mzn-stat: circuitNumber1TotalSccSizeAtPruning=4645
%%%mzn-stat: circuitNumber1NumberOfSccPruningCalls=266
%%%mzn-stat: circuitNumber1TotalVarsInvolvedInPruning=1413
%%%mzn-stat: circuitNumber1MaxValuesPrunedFromSingleVar=6
%%%mzn-stat: circuitNumber1HallCircuitChecks=893
%%%mzn-stat: circuitNumber1HallCircuitPrunings=0
%%%mzn-stat: circuitNumber1CircuitPreventPrunings=132
%%%mzn-stat: AverageConflictSize=11.428571428571429
%%%mzn-stat: NumUnitNogoodsLearned=0
%%%mzn-stat: AverageLearnedNogoodLength=30.928571428571427
%%%mzn-stat: AverageBacktrackAmount=0
%%%mzn-stat: AverageLbd=11.071428571428571
%%%mzn-stat: 2AutonomousSearchNumBackupCalled=3021
%%%mzn-stat: 2AutonomousSearchNumPredicatesRemoved=0
%%%mzn-stat: 2AutonomousSearchNumCalls=3034
%%%mzn-stat: 2AutonomousSearchNumPredicatesAdded=1398
%%%mzn-stat: 2AutonomousSearchAverageSizeOfHeap=1.8404746209624259
%%%mzn-stat: 2AutonomousSearchNumAssignedPredicatesEncountered=5584
%%%mzn-stat-end
maxleg = 624;
succ = array1d(1..50,[13, 19, 10, 14, 11, 39, 30, 28, 6, 8, 17, 25, 29, 9, 31, 5, 35, 21, 41, 23, 32, 27, 22, 4, 50, 46, 44, 12, 16, 26, 34, 49, 3, 38, 7, 47, 45, 1, 43, 33, 42, 20, 48, 40, 36, 24, 18, 37, 2, 15]);
% time elapsed: 1.18 s
----------
%%%mzn-stat: initTime=0.00613583
%%%mzn-stat: objective=620
%%%mzn-stat: nodes=3438
%%%mzn-stat: restarts=0
%%%mzn-stat: peakDepth=293
%%%mzn-stat: solveTime=0.034642424
%%%mzn-stat: variables=790
%%%mzn-stat: propagators=477
%%%mzn-stat: failures=14
%%%mzn-stat: propagations=12794
%%%mzn-stat: nogoods=14
%%%mzn-stat: numAtomicConstraintsPropagated=0
%%%mzn-stat: circuitNumber1PropagationsTotal=573
%%%mzn-stat: circuitNumber1CircuitConflicts=9
%%%mzn-stat: circuitNumber1AlldiffConflicts=2
%%%mzn-stat: circuitNumber1TotalFixedEdgesAtConflict=500
%%%mzn-stat: circuitNumber1NumberOfConflicts=11
%%%mzn-stat: circuitNumber1GacPrunings=2032
%%%mzn-stat: circuitNumber1PropagationsThatGacPruned=278
%%%mzn-stat: circuitNumber1TotalPruningHallSetSize=20554
%%%mzn-stat: circuitNumber1NumberOfPruningExplanations=2032
%%%mzn-stat: circuitNumber1MaxPruningHallSetSize=49
%%%mzn-stat: circuitNumber1TotalSccSizeAtPruning=4867
%%%mzn-stat: circuitNumber1NumberOfSccPruningCalls=278
%%%mzn-stat: circuitNumber1TotalVarsInvolvedInPruning=1474
%%%mzn-stat: circuitNumber1MaxValuesPrunedFromSingleVar=6
%%%mzn-stat: circuitNumber1HallCircuitChecks=922
%%%mzn-stat: circuitNumber1HallCircuitPrunings=0
%%%mzn-stat: circuitNumber1CircuitPreventPrunings=142
%%%mzn-stat: AverageConflictSize=11.428571428571429
%%%mzn-stat: NumUnitNogoodsLearned=0
%%%mzn-stat: AverageLearnedNogoodLength=30.928571428571427
%%%mzn-stat: AverageBacktrackAmount=0
%%%mzn-stat: AverageLbd=11.071428571428571
%%%mzn-stat: 2AutonomousSearchNumBackupCalled=3216
%%%mzn-stat: 2AutonomousSearchNumPredicatesRemoved=0
%%%mzn-stat: 2AutonomousSearchNumCalls=3230
%%%mzn-stat: 2AutonomousSearchNumPredicatesAdded=1398
%%%mzn-stat: 2AutonomousSearchAverageSizeOfHeap=2.0377708978328175
%%%mzn-stat: 2AutonomousSearchNumAssignedPredicatesEncountered=6582
%%%mzn-stat-end
maxleg = 620;
succ = array1d(1..50,[13, 19, 10, 14, 11, 39, 30, 28, 6, 8, 17, 25, 29, 9, 31, 5, 35, 21, 41, 23, 32, 27, 47, 4, 50, 46, 44, 12, 16, 26, 34, 49, 3, 38, 7, 22, 45, 1, 43, 33, 15, 20, 48, 40, 36, 24, 18, 37, 2, 42]);
% time elapsed: 1.18 s
----------
%%%mzn-stat: initTime=0.00613583
%%%mzn-stat: objective=617
%%%mzn-stat: nodes=3622
%%%mzn-stat: restarts=0
%%%mzn-stat: peakDepth=293
%%%mzn-stat: solveTime=0.037453372
%%%mzn-stat: variables=790
%%%mzn-stat: propagators=477
%%%mzn-stat: failures=14
%%%mzn-stat: propagations=13623
%%%mzn-stat: nogoods=14
%%%mzn-stat: numAtomicConstraintsPropagated=0
%%%mzn-stat: circuitNumber1PropagationsTotal=589
%%%mzn-stat: circuitNumber1CircuitConflicts=9
%%%mzn-stat: circuitNumber1AlldiffConflicts=2
%%%mzn-stat: circuitNumber1TotalFixedEdgesAtConflict=500
%%%mzn-stat: circuitNumber1NumberOfConflicts=11
%%%mzn-stat: circuitNumber1GacPrunings=2163
%%%mzn-stat: circuitNumber1PropagationsThatGacPruned=286
%%%mzn-stat: circuitNumber1TotalPruningHallSetSize=22966
%%%mzn-stat: circuitNumber1NumberOfPruningExplanations=2163
%%%mzn-stat: circuitNumber1MaxPruningHallSetSize=49
%%%mzn-stat: circuitNumber1TotalSccSizeAtPruning=5030
%%%mzn-stat: circuitNumber1NumberOfSccPruningCalls=286
%%%mzn-stat: circuitNumber1TotalVarsInvolvedInPruning=1537
%%%mzn-stat: circuitNumber1MaxValuesPrunedFromSingleVar=6
%%%mzn-stat: circuitNumber1HallCircuitChecks=940
%%%mzn-stat: circuitNumber1HallCircuitPrunings=0
%%%mzn-stat: circuitNumber1CircuitPreventPrunings=150
%%%mzn-stat: AverageConflictSize=11.428571428571429
%%%mzn-stat: NumUnitNogoodsLearned=0
%%%mzn-stat: AverageLearnedNogoodLength=30.928571428571427
%%%mzn-stat: AverageBacktrackAmount=0
%%%mzn-stat: AverageLbd=11.071428571428571
%%%mzn-stat: 2AutonomousSearchNumBackupCalled=3396
%%%mzn-stat: 2AutonomousSearchNumPredicatesRemoved=0
%%%mzn-stat: 2AutonomousSearchNumCalls=3411
%%%mzn-stat: 2AutonomousSearchNumPredicatesAdded=1398
%%%mzn-stat: 2AutonomousSearchAverageSizeOfHeap=2.2222222222222223
%%%mzn-stat: 2AutonomousSearchNumAssignedPredicatesEncountered=7580
%%%mzn-stat-end
maxleg = 617;
succ = array1d(1..50,[13, 43, 10, 14, 11, 39, 30, 47, 6, 8, 17, 25, 29, 50, 32, 28, 35, 21, 41, 23, 5, 27, 19, 33, 9, 46, 44, 12, 16, 26, 34, 49, 3, 38, 7, 22, 45, 1, 18, 4, 37, 20, 48, 40, 36, 24, 42, 31, 2, 15]);
% time elapsed: 1.18 s
----------
==========
% time elapsed: 1.18 s
%%%mzn-stat: initTime=0.00613583
%%%mzn-stat: objective=617
%%%mzn-stat: nodes=3622
%%%mzn-stat: restarts=0
%%%mzn-stat: peakDepth=293
%%%mzn-stat: solveTime=0.037567347
%%%mzn-stat: variables=790
%%%mzn-stat: propagators=477
%%%mzn-stat: failures=15
%%%mzn-stat: propagations=13812
%%%mzn-stat: nogoods=15
%%%mzn-stat: numAtomicConstraintsPropagated=0
%%%mzn-stat: circuitNumber1PropagationsTotal=589
%%%mzn-stat: circuitNumber1CircuitConflicts=9
%%%mzn-stat: circuitNumber1AlldiffConflicts=2
%%%mzn-stat: circuitNumber1TotalFixedEdgesAtConflict=500
%%%mzn-stat: circuitNumber1NumberOfConflicts=11
%%%mzn-stat: circuitNumber1GacPrunings=2163
%%%mzn-stat: circuitNumber1PropagationsThatGacPruned=286
%%%mzn-stat: circuitNumber1TotalPruningHallSetSize=22966
%%%mzn-stat: circuitNumber1NumberOfPruningExplanations=2163
%%%mzn-stat: circuitNumber1MaxPruningHallSetSize=49
%%%mzn-stat: circuitNumber1TotalSccSizeAtPruning=5030
%%%mzn-stat: circuitNumber1NumberOfSccPruningCalls=286
%%%mzn-stat: circuitNumber1TotalVarsInvolvedInPruning=1537
%%%mzn-stat: circuitNumber1MaxValuesPrunedFromSingleVar=6
%%%mzn-stat: circuitNumber1HallCircuitChecks=940
%%%mzn-stat: circuitNumber1HallCircuitPrunings=0
%%%mzn-stat: circuitNumber1CircuitPreventPrunings=150
%%%mzn-stat: AverageConflictSize=10.8
%%%mzn-stat: NumUnitNogoodsLearned=1
%%%mzn-stat: AverageLearnedNogoodLength=28.933333333333334
%%%mzn-stat: AverageBacktrackAmount=0
%%%mzn-stat: AverageLbd=10.4
%%%mzn-stat: 2AutonomousSearchNumBackupCalled=3396
%%%mzn-stat: 2AutonomousSearchNumPredicatesRemoved=0
%%%mzn-stat: 2AutonomousSearchNumCalls=3411
%%%mzn-stat: 2AutonomousSearchNumPredicatesAdded=1447
%%%mzn-stat: 2AutonomousSearchAverageSizeOfHeap=2.2222222222222223
%%%mzn-stat: 2AutonomousSearchNumAssignedPredicatesEncountered=7580
%%%mzn-stat-end
